VER
1

OBJSENSE
MIN

VAR
3 1
F 3

INT
3
0
1
2

CON
8 1
L+ 8

PSDCON
2
2
2

OBJACOORD
3
0 1.000000
1 -2.000000
2 -1.000000

ACOORD
12
0 0 1.000000
0 1 1.000000
0 2 1.000000
1 0 -1.000000
1 1 -1.000000
1 2 -1.000000
2 0 1.0
3 0 -1.0
4 1 1.0
5 1 -1.0
6 2 1.0
7 2 -1.0

BCOORD
8
0 -1e20
1 8.000000
2 10.0
3 10.0
4 10.0
5 10.0
6 10.0
7 10.0

HCOORD
5
0 0 0 0 1.000000
0 1 1 0 1.000000
0 2 1 1 1.000000
1 0 1 0 1.000000
1 2 0 0 1.000000

DCOORD
1
1 1 1 2.100000
